CPXPARAM_TimeLimit                               1800
CPXPARAM_Read_DataCheck                          1
CPXPARAM_MIP_Strategy_HeuristicFreq              -1
Parallel mode: deterministic, using up to 8 threads for concurrent optimization.
Tried aggregator 1 time.
LP Presolve eliminated 159 rows and 20475 columns.
Reduced LP has 9951 rows, 1801 columns, and 29127 nonzeros.
Presolve time = 0.00 sec. (8.47 ticks)

Iteration log . . .
Iteration:     1   Dual objective     =           963.000000
Perturbation started.
Iteration:   196   Dual objective     =           963.000000
Initializing dual steep norms . . .
Iteration:   197   Dual objective     =           963.000217
Iteration:   493   Dual objective     =           963.013426
Iteration:   796   Dual objective     =           963.013972
Iteration:  1064   Dual objective     =           963.014225
Iteration:  1266   Dual objective     =           963.015308
Iteration:  1505   Dual objective     =           963.015474
Iteration:  1759   Dual objective     =           963.015892
Iteration:  2110   Dual objective     =           963.015989
Iteration:  2363   Dual objective     =           963.016269
Removing perturbation.

Dual simplex solved model.

